p edge 100 1238
e 1 2
e 1 11
e 1 14
e 1 18
e 1 22
e 1 27
e 1 28
e 1 32
e 1 33
e 1 35
e 1 41
e 1 52
e 1 55
e 1 57
e 1 69
e 1 70
e 1 72
e 1 74
e 1 79
e 1 80
e 1 81
e 1 85
e 1 86
e 1 89
e 1 91
e 1 97
e 2 8
e 2 11
e 2 13
e 2 15
e 2 16
e 2 19
e 2 29
e 2 30
e 2 33
e 2 35
e 2 42
e 2 47
e 2 49
e 2 62
e 2 63
e 2 66
e 2 67
e 2 69
e 2 71
e 2 74
e 2 78
e 2 79
e 2 80
e 2 81
e 2 89
e 2 90
e 2 92
e 3 6
e 3 11
e 3 14
e 3 26
e 3 30
e 3 37
e 3 40
e 3 50
e 3 54
e 3 56
e 3 58
e 3 59
e 3 64
e 3 71
e 3 73
e 3 76
e 3 80
e 3 81
e 3 89
e 3 92
e 3 99
e 4 18
e 4 19
e 4 31
e 4 36
e 4 38
e 4 39
e 4 40
e 4 51
e 4 60
e 4 64
e 4 65
e 4 66
e 4 67
e 4 68
e 4 69
e 4 72
e 4 74
e 4 78
e 4 81
e 4 82
e 4 87
e 4 88
e 4 89
e 4 93
e 4 95
e 5 6
e 5 9
e 5 13
e 5 14
e 5 18
e 5 25
e 5 34
e 5 35
e 5 39
e 5 45
e 5 46
e 5 48
e 5 55
e 5 59
e 5 61
e 5 64
e 5 69
e 5 72
e 5 73
e 5 76
e 5 79
e 5 88
e 5 89
e 5 90
e 5 93
e 5 97
e 5 98
e 6 8
e 6 18
e 6 20
e 6 24
e 6 26
e 6 29
e 6 38
e 6 41
e 6 42
e 6 47
e 6 50
e 6 63
e 6 68
e 6 70
e 6 72
e 6 81
e 6 84
e 6 85
e 6 89
e 6 91
e 6 93
e 6 97
e 7 12
e 7 14
e 7 24
e 7 25
e 7 29
e 7 30
e 7 31
e 7 33
e 7 35
e 7 36
e 7 38
e 7 44
e 7 46
e 7 47
e 7 53
e 7 67
e 7 70
e 7 72
e 7 82
e 7 84
e 7 89
e 7 90
e 7 92
e 7 100
e 8 9
e 8 11
e 8 15
e 8 20
e 8 22
e 8 23
e 8 25
e 8 35
e 8 38
e 8 39
e 8 40
e 8 42
e 8 52
e 8 54
e 8 57
e 8 73
e 8 84
e 8 92
e 9 14
e 9 21
e 9 23
e 9 25
e 9 30
e 9 31
e 9 34
e 9 40
e 9 43
e 9 44
e 9 56
e 9 63
e 9 70
e 9 72
e 9 75
e 9 82
e 9 87
e 9 92
e 9 98
e 10 12
e 10 14
e 10 16
e 10 20
e 10 23
e 10 29
e 10 30
e 10 33
e 10 45
e 10 49
e 10 50
e 10 60
e 10 61
e 10 68
e 10 73
e 10 77
e 10 79
e 10 83
e 10 84
e 10 96
e 11 12
e 11 16
e 11 23
e 11 26
e 11 28
e 11 33
e 11 37
e 11 42
e 11 45
e 11 46
e 11 48
e 11 49
e 11 53
e 11 54
e 11 56
e 11 67
e 11 68
e 11 69
e 11 72
e 11 79
e 11 83
e 11 91
e 11 96
e 11 99
e 12 25
e 12 29
e 12 34
e 12 35
e 12 38
e 12 39
e 12 40
e 12 42
e 12 43
e 12 47
e 12 54
e 12 58
e 12 66
e 12 73
e 12 74
e 12 75
e 12 76
e 12 78
e 12 79
e 12 80
e 12 82
e 12 85
e 12 88
e 12 93
e 12 99
e 13 17
e 13 19
e 13 20
e 13 26
e 13 27
e 13 35
e 13 41
e 13 44
e 13 52
e 13 53
e 13 55
e 13 56
e 13 58
e 13 61
e 13 62
e 13 78
e 13 79
e 13 81
e 13 84
e 13 86
e 13 88
e 13 93
e 14 18
e 14 21
e 14 23
e 14 26
e 14 27
e 14 40
e 14 41
e 14 53
e 14 57
e 14 60
e 14 61
e 14 62
e 14 65
e 14 68
e 14 71
e 14 80
e 14 83
e 14 88
e 14 92
e 14 95
e 15 17
e 15 19
e 15 23
e 15 24
e 15 30
e 15 32
e 15 34
e 15 40
e 15 42
e 15 46
e 15 50
e 15 51
e 15 52
e 15 58
e 15 59
e 15 62
e 15 65
e 15 71
e 15 74
e 15 75
e 15 81
e 15 92
e 15 94
e 15 95
e 15 96
e 15 99
e 15 100
e 16 19
e 16 21
e 16 23
e 16 27
e 16 28
e 16 29
e 16 44
e 16 46
e 16 48
e 16 50
e 16 53
e 16 61
e 16 67
e 16 73
e 16 77
e 16 78
e 16 86
e 16 88
e 16 89
e 16 91
e 16 92
e 16 96
e 17 20
e 17 21
e 17 23
e 17 26
e 17 28
e 17 29
e 17 30
e 17 32
e 17 35
e 17 36
e 17 39
e 17 40
e 17 49
e 17 53
e 17 56
e 17 58
e 17 63
e 17 67
e 17 76
e 17 80
e 17 81
e 17 82
e 17 83
e 17 95
e 18 20
e 18 21
e 18 26
e 18 27
e 18 28
e 18 37
e 18 43
e 18 45
e 18 50
e 18 51
e 18 59
e 18 62
e 18 64
e 18 69
e 18 72
e 18 82
e 18 92
e 18 95
e 18 97
e 19 20
e 19 22
e 19 27
e 19 33
e 19 34
e 19 41
e 19 42
e 19 49
e 19 54
e 19 61
e 19 65
e 19 74
e 19 79
e 19 83
e 19 93
e 19 96
e 19 97
e 19 100
e 20 22
e 20 27
e 20 38
e 20 39
e 20 43
e 20 44
e 20 45
e 20 49
e 20 50
e 20 52
e 20 53
e 20 58
e 20 61
e 20 65
e 20 81
e 20 85
e 20 92
e 20 93
e 20 96
e 21 22
e 21 24
e 21 26
e 21 28
e 21 30
e 21 35
e 21 47
e 21 48
e 21 53
e 21 54
e 21 55
e 21 57
e 21 63
e 21 64
e 21 78
e 21 87
e 21 96
e 21 97
e 22 23
e 22 26
e 22 29
e 22 30
e 22 33
e 22 38
e 22 39
e 22 45
e 22 51
e 22 54
e 22 66
e 22 69
e 22 72
e 22 74
e 22 77
e 22 78
e 22 79
e 22 87
e 22 99
e 23 24
e 23 26
e 23 31
e 23 34
e 23 40
e 23 41
e 23 42
e 23 45
e 23 60
e 23 65
e 23 68
e 23 79
e 23 81
e 23 93
e 23 97
e 24 28
e 24 31
e 24 33
e 24 34
e 24 42
e 24 44
e 24 46
e 24 57
e 24 58
e 24 62
e 24 69
e 24 71
e 24 74
e 24 76
e 24 98
e 25 28
e 25 35
e 25 37
e 25 38
e 25 44
e 25 48
e 25 55
e 25 58
e 25 64
e 25 72
e 25 76
e 25 85
e 25 86
e 25 91
e 26 30
e 26 33
e 26 35
e 26 39
e 26 40
e 26 44
e 26 53
e 26 55
e 26 60
e 26 61
e 26 66
e 26 67
e 26 68
e 26 69
e 26 70
e 26 72
e 26 75
e 26 76
e 26 81
e 26 87
e 26 88
e 26 90
e 26 91
e 26 92
e 26 98
e 27 28
e 27 29
e 27 31
e 27 37
e 27 38
e 27 39
e 27 52
e 27 54
e 27 56
e 27 62
e 27 65
e 27 67
e 27 78
e 27 81
e 27 82
e 27 88
e 27 90
e 27 92
e 27 94
e 28 31
e 28 44
e 28 46
e 28 53
e 28 55
e 28 58
e 28 61
e 28 63
e 28 66
e 28 70
e 28 75
e 28 76
e 28 81
e 28 88
e 28 90
e 28 91
e 28 93
e 29 31
e 29 32
e 29 33
e 29 38
e 29 43
e 29 60
e 29 63
e 29 67
e 29 70
e 29 75
e 29 76
e 29 88
e 29 92
e 29 94
e 29 96
e 30 36
e 30 56
e 30 59
e 30 61
e 30 67
e 30 71
e 30 79
e 30 89
e 30 95
e 30 97
e 30 98
e 30 99
e 31 32
e 31 41
e 31 43
e 31 51
e 31 58
e 31 60
e 31 61
e 31 65
e 31 69
e 31 76
e 31 78
e 31 79
e 31 80
e 31 85
e 31 98
e 32 35
e 32 38
e 32 41
e 32 42
e 32 45
e 32 46
e 32 48
e 32 62
e 32 75
e 32 79
e 32 80
e 32 81
e 32 82
e 32 85
e 32 87
e 33 42
e 33 43
e 33 45
e 33 46
e 33 49
e 33 50
e 33 53
e 33 54
e 33 55
e 33 58
e 33 69
e 33 75
e 33 76
e 33 80
e 33 82
e 33 84
e 33 85
e 33 87
e 33 92
e 34 36
e 34 42
e 34 62
e 34 66
e 34 68
e 34 72
e 34 85
e 34 89
e 34 93
e 34 94
e 35 40
e 35 43
e 35 47
e 35 49
e 35 51
e 35 53
e 35 54
e 35 55
e 35 58
e 35 64
e 35 66
e 35 73
e 35 78
e 35 88
e 35 95
e 35 98
e 36 42
e 36 51
e 36 54
e 36 55
e 36 56
e 36 57
e 36 59
e 36 60
e 36 63
e 36 64
e 36 65
e 36 70
e 36 71
e 36 76
e 36 79
e 36 80
e 36 83
e 36 86
e 36 90
e 36 93
e 36 97
e 37 46
e 37 49
e 37 52
e 37 54
e 37 67
e 37 68
e 37 71
e 37 72
e 37 73
e 37 82
e 37 83
e 37 87
e 37 90
e 37 93
e 37 100
e 38 43
e 38 52
e 38 54
e 38 57
e 38 60
e 38 62
e 38 63
e 38 70
e 38 71
e 38 72
e 38 77
e 38 78
e 38 82
e 38 85
e 38 89
e 38 90
e 38 92
e 38 94
e 38 98
e 39 40
e 39 43
e 39 47
e 39 48
e 39 52
e 39 66
e 39 68
e 39 77
e 39 78
e 39 79
e 39 86
e 39 90
e 39 92
e 39 94
e 39 95
e 39 97
e 39 98
e 40 41
e 40 42
e 40 43
e 40 52
e 40 60
e 40 61
e 40 72
e 40 75
e 40 79
e 40 81
e 40 82
e 40 88
e 40 89
e 40 90
e 40 94
e 41 43
e 41 45
e 41 49
e 41 51
e 41 54
e 41 59
e 41 69
e 41 75
e 41 76
e 41 83
e 41 85
e 41 87
e 42 43
e 42 46
e 42 52
e 42 53
e 42 59
e 42 65
e 42 68
e 42 69
e 42 74
e 42 75
e 42 78
e 42 81
e 43 44
e 43 50
e 43 51
e 43 52
e 43 56
e 43 60
e 43 63
e 43 74
e 43 79
e 43 81
e 43 83
e 43 85
e 43 88
e 43 93
e 43 99
e 44 47
e 44 52
e 44 55
e 44 66
e 44 70
e 44 72
e 44 73
e 44 76
e 44 82
e 44 83
e 44 85
e 44 86
e 44 89
e 44 90
e 45 57
e 45 67
e 45 70
e 45 73
e 45 76
e 45 79
e 45 80
e 45 81
e 45 85
e 45 86
e 45 88
e 45 96
e 46 51
e 46 56
e 46 57
e 46 61
e 46 69
e 46 78
e 46 83
e 46 84
e 46 85
e 46 89
e 46 91
e 46 94
e 46 96
e 47 48
e 47 53
e 47 54
e 47 56
e 47 58
e 47 63
e 47 66
e 47 69
e 47 70
e 47 71
e 47 73
e 47 76
e 47 81
e 47 87
e 47 90
e 47 91
e 47 95
e 47 96
e 47 97
e 48 51
e 48 52
e 48 57
e 48 60
e 48 61
e 48 62
e 48 66
e 48 67
e 48 70
e 48 72
e 48 73
e 48 74
e 48 75
e 48 76
e 48 77
e 48 87
e 48 91
e 48 94
e 48 99
e 48 100
e 49 53
e 49 59
e 49 61
e 49 62
e 49 64
e 49 68
e 49 73
e 49 76
e 49 77
e 49 85
e 49 86
e 49 89
e 49 90
e 49 91
e 49 92
e 49 95
e 49 96
e 49 99
e 50 58
e 50 62
e 50 69
e 50 70
e 50 72
e 50 75
e 50 77
e 50 78
e 50 84
e 50 85
e 50 86
e 50 88
e 50 89
e 50 94
e 50 97
e 50 98
e 50 99
e 51 52
e 51 53
e 51 56
e 51 57
e 51 58
e 51 60
e 51 74
e 51 75
e 51 79
e 51 86
e 51 87
e 51 90
e 51 92
e 51 93
e 52 65
e 52 74
e 52 76
e 52 78
e 52 80
e 52 82
e 52 89
e 52 99
e 52 100
e 53 54
e 53 55
e 53 59
e 53 60
e 53 69
e 53 73
e 53 77
e 53 85
e 53 93
e 53 97
e 53 100
e 54 59
e 54 60
e 54 74
e 54 77
e 54 78
e 54 96
e 54 97
e 55 60
e 55 62
e 55 64
e 55 71
e 55 73
e 55 78
e 55 83
e 55 84
e 55 85
e 55 87
e 55 88
e 55 89
e 55 93
e 56 57
e 56 60
e 56 73
e 56 80
e 56 98
e 57 59
e 57 63
e 57 64
e 57 65
e 57 83
e 57 86
e 57 87
e 57 88
e 57 89
e 57 94
e 58 64
e 58 65
e 58 66
e 58 71
e 58 77
e 58 79
e 58 86
e 58 88
e 58 90
e 58 93
e 58 97
e 58 98
e 59 61
e 59 63
e 59 64
e 59 65
e 59 66
e 59 68
e 59 73
e 59 76
e 59 77
e 59 78
e 59 83
e 59 84
e 59 85
e 59 91
e 59 92
e 59 93
e 59 94
e 60 62
e 60 66
e 60 69
e 60 71
e 60 72
e 60 74
e 60 78
e 60 84
e 60 85
e 60 90
e 60 97
e 61 72
e 61 81
e 61 89
e 61 90
e 61 95
e 62 63
e 62 68
e 62 74
e 62 77
e 62 81
e 62 84
e 62 87
e 62 88
e 62 96
e 62 99
e 63 68
e 63 70
e 63 76
e 63 85
e 63 99
e 64 70
e 64 77
e 64 79
e 64 81
e 64 83
e 64 84
e 64 90
e 64 98
e 65 69
e 65 72
e 65 76
e 65 80
e 65 81
e 65 82
e 65 87
e 65 95
e 65 97
e 66 67
e 66 68
e 66 69
e 66 70
e 66 72
e 66 80
e 66 83
e 66 85
e 66 87
e 66 89
e 66 90
e 66 97
e 67 76
e 67 81
e 67 84
e 67 86
e 67 87
e 67 89
e 67 97
e 67 98
e 68 70
e 68 74
e 68 76
e 68 80
e 68 94
e 68 98
e 68 100
e 69 76
e 69 78
e 69 80
e 69 81
e 69 84
e 69 89
e 69 92
e 69 98
e 70 71
e 70 73
e 70 75
e 70 76
e 70 79
e 70 93
e 71 75
e 71 78
e 71 87
e 71 88
e 71 92
e 71 93
e 71 96
e 72 73
e 72 74
e 72 76
e 72 84
e 72 86
e 72 88
e 72 89
e 72 90
e 72 91
e 72 95
e 72 98
e 72 99
e 73 75
e 73 81
e 73 85
e 73 92
e 73 95
e 73 97
e 73 99
e 74 75
e 74 77
e 74 78
e 74 80
e 74 85
e 74 87
e 74 98
e 74 99
e 74 100
e 75 81
e 75 82
e 75 86
e 75 87
e 75 92
e 75 100
e 76 81
e 76 82
e 76 87
e 76 89
e 76 90
e 76 93
e 76 95
e 76 97
e 77 91
e 77 92
e 77 97
e 78 84
e 78 85
e 78 88
e 78 93
e 78 95
e 78 96
e 79 81
e 79 84
e 79 88
e 79 89
e 79 91
e 79 93
e 79 94
e 79 98
e 80 81
e 80 87
e 80 88
e 80 97
e 80 98
e 81 86
e 81 89
e 81 91
e 81 93
e 81 94
e 81 99
e 82 83
e 82 89
e 82 94
e 82 96
e 82 100
e 83 86
e 83 88
e 83 91
e 83 92
e 83 95
e 84 86
e 84 94
e 84 95
e 85 91
e 85 94
e 86 90
e 86 95
e 87 88
e 87 89
e 87 90
e 87 91
e 87 96
e 87 98
e 87 99
e 87 100
e 88 95
e 89 90
e 89 94
e 90 95
e 90 98
e 91 97
e 91 98
e 91 99
e 91 100
e 92 93
e 92 94
e 93 98
e 93 100
e 94 95
e 94 97
e 95 96
e 97 98
